
===== New CPLEX run =====
Instance: /home/yorig/tuner/mpils-tests/instances/miplib/medium-1/momentum1.mps
Config: /scratch/yorig/mpils-results-grid-ticks-10000/medium-1/16proc/seed-5/6_momentum1_seed-5_20260425_215516/expansion/config_param_CPXPARAM_MIP_Limits_AggForCut_5_iter_3.prm
========================

Selected objective sense:  MINIMIZE
Selected objective  name:  MINIMIZE
Selected RHS        name:  rhs
Selected bound      name:  bnd
Version identifier: 22.1.2.0 | 2024-11-26 | 0edbb82fd
CPXPARAM_Threads                                 8
CPXPARAM_Parallel                                1
CPXPARAM_MIP_Cuts_Cliques                        -1
CPXPARAM_MIP_Cuts_FlowCovers                     2
CPXPARAM_MIP_Cuts_Implied                        1
CPXPARAM_MIP_Limits_GomoryCand                   25
CPXPARAM_MIP_Cuts_Gomory                         1
CPXPARAM_MIP_Cuts_PathCut                        1
CPXPARAM_MIP_Cuts_Disjunctive                    -1
CPXPARAM_MIP_Limits_AggForCut                    5
CPXPARAM_Emphasis_MIP                            4
CPXPARAM_MIP_Strategy_HeuristicFreq              100
CPXPARAM_DetTimeLimit                            10000
Tried aggregator 3 times.
MIP Presolve eliminated 30810 rows and 1362 columns.
MIP Presolve modified 22293 coefficients.
Aggregator did 232 substitutions.
Reduced MIP has 11638 rows, 3580 columns, and 46688 nonzeros.
Reduced MIP has 1625 binaries, 0 generals, 0 SOSs, and 0 indicators.
Presolve time = 0.10 sec. (139.58 ticks)
Found incumbent of value 533875.101733 after 0.12 sec. (154.72 ticks)
Probing fixed 392 vars, tightened 1078 bounds.
Probing changed sense of 113 constraints.
Probing time = 0.08 sec. (90.30 ticks)
Cover probing fixed 0 vars, tightened 267 bounds.
Tried aggregator 2 times.
MIP Presolve eliminated 3295 rows and 847 columns.
MIP Presolve modified 7082 coefficients.
Aggregator did 11 substitutions.
Reduced MIP has 8332 rows, 2722 columns, and 31418 nonzeros.
Reduced MIP has 1168 binaries, 0 generals, 0 SOSs, and 0 indicators.
Presolve time = 0.04 sec. (44.43 ticks)
Probing fixed 1 vars, tightened 256 bounds.
Probing time = 0.04 sec. (44.20 ticks)
Cover probing fixed 0 vars, tightened 190 bounds.
Tried aggregator 1 time.
Detecting symmetries...
MIP Presolve eliminated 26 rows and 2 columns.
MIP Presolve modified 5059 coefficients.
Reduced MIP has 8306 rows, 2720 columns, and 31355 nonzeros.
Reduced MIP has 1167 binaries, 0 generals, 0 SOSs, and 0 indicators.
Presolve time = 0.02 sec. (22.06 ticks)
Probing fixed 0 vars, tightened 90 bounds.
Probing time = 0.04 sec. (40.55 ticks)
Cover probing fixed 0 vars, tightened 69 bounds.
Clique table members: 18692.
MIP emphasis: hidden feasible solutions.
MIP search method: dynamic search.
Parallel mode: deterministic, using up to 8 threads.
Root relaxation solution time = 0.11 sec. (144.31 ticks)

        Nodes                                         Cuts/
   Node  Left     Objective  IInf  Best Integer    Best Bound    ItCnt     Gap

*     0+    0                       533875.1017    44880.8652            91.59%
*     0+    0                       533847.9795    44880.8652            91.59%
*     0+    0                       333826.8649    44880.8652            86.56%
*     0+    0                       333809.0666    44880.8652            86.55%
      0     0    79213.0345   216   333809.0666    79213.0345     1531   76.27%
      0     0    96254.7906   295   333809.0666     Cuts: 191     2089   71.16%
      0     0    96262.5503   271   333809.0666      Cuts: 88     2319   71.16%
      0     0    96263.8509   296   333809.0666      Cuts: 41     2427   71.16%
      0     0    96275.5522   271   333809.0666      Cuts: 30     2545   71.16%
      0     0    96282.1783   314   333809.0666      Cuts: 45     2749   71.16%
Detecting symmetries...
*     0+    0                       320985.2647    96282.1783            70.00%
      0     0    96285.0618   312   320985.2647      Cuts: 25     2781   70.00%
*     0+    0                       308145.3208    96285.0618            68.75%
      0     0  -1.00000e+75     0   308145.3208    96285.0618     2781   68.75%
Detecting symmetries...
      0     2    96285.0618   312   308145.3208    96285.0618     2781   68.75%
Elapsed time = 3.37 sec. (5509.96 ticks, tree = 0.02 MB, solutions = 6)
     34    24    96350.0355   257   308145.3208    96299.6095     5060   68.75%
     56    38    96392.9623   241   308145.3208    96299.6095     7005   68.75%
     73    65   101505.4156   235   308145.3208    96299.6095    11146   68.75%
     84    84    96373.5766   257   308145.3208    96299.6095    19670   68.75%
     95    91   107787.2685   175   308145.3208    96299.6095    22321   68.75%
    135   103   111027.5030   186   308145.3208    96299.6095    26231   68.75%
    155   109   115656.5625   167   308145.3208    96299.6095    28827   68.75%
    201   178   109205.5631   153   308145.3208    96299.6095    36929   68.75%
    251   179   115657.2484   186   308145.3208    96299.6095    39466   68.75%
    463   370   122210.0338   206   308145.3208    96299.6095    64595   68.75%
Elapsed time = 5.40 sec. (8779.39 ticks, tree = 1.30 MB, solutions = 6)
    700   542   102726.1209   190   308145.3208    96299.6095    79790   68.75%
*   707   554      integral     0   186248.9553    96299.6095    82058   48.30%

Implied bound cuts applied:  5
Flow cuts applied:  123
Flow path cuts applied:  0
Zero-half cuts applied:  31
Gomory fractional cuts applied:  4

Root node processing (before b&c):
  Real time             =    3.35 sec. (5477.36 ticks)
Parallel b&c, 8 threads:
  Real time             =    2.93 sec. (4552.35 ticks)
  Sync time (average)   =    0.32 sec.
  Wait time (average)   =    0.00 sec.
                          ------------
Total (root+branch&cut) =    6.28 sec. (10029.71 ticks)
Gap: 48.29%
Upper bound: 186249
Lower bound: 96308.1
End of CPLEX run. Time: 6.28 seconds

===== New CPLEX run =====
Instance: /home/yorig/tuner/mpils-tests/instances/miplib/medium-1/momentum1.mps
Config: /scratch/yorig/mpils-results-grid-ticks-10000/medium-1/16proc/seed-5/6_momentum1_seed-5_20260425_215516/expansion/config_param_CPXPARAM_MIP_Limits_AggForCut_10_iter_3.prm
========================

Selected objective sense:  MINIMIZE
Selected objective  name:  MINIMIZE
Selected RHS        name:  rhs
Selected bound      name:  bnd
Version identifier: 22.1.2.0 | 2024-11-26 | 0edbb82fd
CPXPARAM_Threads                                 8
CPXPARAM_Parallel                                1
CPXPARAM_MIP_Cuts_Cliques                        -1
CPXPARAM_MIP_Cuts_FlowCovers                     2
CPXPARAM_MIP_Cuts_Implied                        1
CPXPARAM_MIP_Limits_GomoryCand                   25
CPXPARAM_MIP_Cuts_Gomory                         1
CPXPARAM_MIP_Cuts_PathCut                        1
CPXPARAM_MIP_Cuts_Disjunctive                    -1
CPXPARAM_MIP_Limits_AggForCut                    10
CPXPARAM_Emphasis_MIP                            4
CPXPARAM_MIP_Strategy_HeuristicFreq              100
CPXPARAM_DetTimeLimit                            10000
Tried aggregator 3 times.
MIP Presolve eliminated 30810 rows and 1362 columns.
MIP Presolve modified 22293 coefficients.
Aggregator did 232 substitutions.
Reduced MIP has 11638 rows, 3580 columns, and 46688 nonzeros.
Reduced MIP has 1625 binaries, 0 generals, 0 SOSs, and 0 indicators.
Presolve time = 0.10 sec. (139.58 ticks)
Found incumbent of value 533875.101733 after 0.12 sec. (154.72 ticks)
Probing fixed 392 vars, tightened 1078 bounds.
Probing changed sense of 113 constraints.
Probing time = 0.08 sec. (90.30 ticks)
Cover probing fixed 0 vars, tightened 267 bounds.
Tried aggregator 2 times.
MIP Presolve eliminated 3295 rows and 847 columns.
MIP Presolve modified 7082 coefficients.
Aggregator did 11 substitutions.
Reduced MIP has 8332 rows, 2722 columns, and 31418 nonzeros.
Reduced MIP has 1168 binaries, 0 generals, 0 SOSs, and 0 indicators.
Presolve time = 0.04 sec. (44.43 ticks)
Probing fixed 1 vars, tightened 256 bounds.
Probing time = 0.04 sec. (44.20 ticks)
Cover probing fixed 0 vars, tightened 190 bounds.
Tried aggregator 1 time.
Detecting symmetries...
MIP Presolve eliminated 26 rows and 2 columns.
MIP Presolve modified 5059 coefficients.
Reduced MIP has 8306 rows, 2720 columns, and 31355 nonzeros.
Reduced MIP has 1167 binaries, 0 generals, 0 SOSs, and 0 indicators.
Presolve time = 0.02 sec. (22.06 ticks)
Probing fixed 0 vars, tightened 90 bounds.
Probing time = 0.04 sec. (40.55 ticks)
Cover probing fixed 0 vars, tightened 69 bounds.
Clique table members: 18692.
MIP emphasis: hidden feasible solutions.
MIP search method: dynamic search.
Parallel mode: deterministic, using up to 8 threads.
Root relaxation solution time = 0.11 sec. (144.31 ticks)

        Nodes                                         Cuts/
   Node  Left     Objective  IInf  Best Integer    Best Bound    ItCnt     Gap

*     0+    0                       533875.1017    44880.8652            91.59%
*     0+    0                       533847.9795    44880.8652            91.59%
*     0+    0                       333826.8649    44880.8652            86.56%
*     0+    0                       333809.0666    44880.8652            86.55%
      0     0    79213.0345   216   333809.0666    79213.0345     1531   76.27%
      0     0    96254.8022   295   333809.0666     Cuts: 200     2093   71.16%
      0     0    96262.6131   272   333809.0666      Cuts: 94     2331   71.16%
      0     0    96263.7930   298   333809.0666      Cuts: 45     2454   71.16%
*     0+    0                       320985.2647    96263.7930            70.01%
      0     0    96266.6456   288   320985.2647      Cuts: 27     2573   70.01%
      0     0    96275.4116   271   320985.2647      Cuts: 79     2734   70.01%
Detecting symmetries...
      0     0    96282.3854   319   320985.2647      Cuts: 47     2926   70.00%
*     0+    0                       320985.2645    96282.3854            70.00%
      0     0  -1.00000e+75     0   320985.2645    96282.3854     2926   70.00%
      0     0    96285.1682   317   320985.2645   Flowcuts: 8     2949   70.00%
*     0+    0                       128457.4569    96285.1682            25.05%
Detecting symmetries...
      0     2    96285.1682   317   128457.4569    96285.1682     2949   25.05%
Elapsed time = 4.17 sec. (6535.83 ticks, tree = 0.02 MB, solutions = 7)
     31    27    96331.2340   244   128457.4569    96285.1756     5041   25.05%
     53    49    96396.7461   239   128457.4569    96295.0273     9403   25.04%
     97    68    96676.7520   247   128457.4569    96295.0273    13601   25.04%
    107    92   106034.8519   225   128457.4569    96295.0273    18441   25.04%
    114    99        cutoff         128457.4569    96295.0273    20237   25.04%
    123   112   109155.5195   210   128457.4569    96295.0273    27480   25.04%
    151   127   115612.5444   169   128457.4569    96295.0273    31789   25.04%
    206   155   115628.3583   137   128457.4569    96295.0273    37268   25.04%
    276   206   122041.7311    55   128457.4569    96295.0273    41264   25.04%
    537   356    96684.4273   201   128457.4569    96295.0273    63581   25.04%
Elapsed time = 6.28 sec. (9770.52 ticks, tree = 0.80 MB, solutions = 7)

Cover cuts applied:  1
Implied bound cuts applied:  6
Flow cuts applied:  143
Flow path cuts applied:  0
Zero-half cuts applied:  32
Gomory fractional cuts applied:  4

Root node processing (before b&c):
  Real time             =    4.13 sec. (6500.74 ticks)
Parallel b&c, 8 threads:
  Real time             =    2.30 sec. (3503.73 ticks)
  Sync time (average)   =    0.30 sec.
  Wait time (average)   =    0.00 sec.
                          ------------
Total (root+branch&cut) =    6.43 sec. (10004.48 ticks)
Gap: 25.04%
Upper bound: 128457
Lower bound: 96295
End of CPLEX run. Time: 6.43557 seconds
